c 2 __LINUXTHREADS_OLD__
c 7 __UCLIBC_HAS_IPV6__
c 1 __UCLIBC_HAS_THREADS_NATIVE__
c 5 __UCLIBC_HAS_SOCKET__
c 3 __UCLIBC_HAS_STDIO_BUFSIZ_NONE__
c 8 __UCLIBC_HAS_IPV4__
c 6 __LINUXTHREADS_NEW__
c 4 __UCLIBC_HAS_THREADS__
p cnf 8 3
1 2 -5 3 -4 6 1
-7 1 2 3 -4 6 1
-8 1 2 3 -4 6 1
